# 3d Lennard-Jones melt

units		lj
atom_style	atomic

lattice		fcc 0.8442
region		box block 0 10 0 10 0 10
create_box	1 box
create_atoms	1 box
mass		1 1.0

velocity	all create 3.0 87287

pair_style	lj/cut 2.5
pair_coeff	1 1 1.0 1.0 2.5

neighbor	0.3 bin
neigh_modify	every 20 delay 0 check no

variable dt equal 0.01
#variable dt equal 0.002
timestep ${dt}
#fix		1 all npt temp 1 1 $(100*dt) iso 1 1 $(1000*dt) tchain 1 pchain 1
fix		1 all npt/nhl temp 1 1 $(100*dt) iso 1 1 $(1000*dt)

#dump		id all atom 50 dump.melt

#dump		2 all image 25 image.*.jpg type type &
#		axes yes 0.8 0.02 view 60 -30
#dump_modify	2 pad 3

#dump		3 all movie 25 movie.mpg type type &
#		axes yes 0.8 0.02 view 60 -30
#dump_modify	3 pad 3


run_style	    respa 2 4 inner 1 1.5 2.0 outer 2

thermo		50
run		250
write_restart restart.equil
run		25000
